
Log started (V12.8.0.0) Wed Aug 29 18:35:38 2018

New value for time limit in seconds: 500
CPXPARAM_TimeLimit                               500
CPXPARAM_Emphasis_Numerical                      1
CPXPARAM_Parallel                                -1
CPXPARAM_Benders_Strategy                        3
CPXPARAM_MIP_Tolerances_Integrality              9.9999999999999995e-08
CPXPARAM_MIP_Pool_AbsGap                         0
Tried aggregator 3 times.
MIP Presolve eliminated 8455 rows and 3883 columns.
Aggregator did 1104 substitutions.
Reduced MIP has 2307 rows, 2461 columns, and 9063 nonzeros.
Reduced MIP has 22 binaries, 0 generals, 0 SOSs, and 0 indicators.
Presolve time = 0.01 sec. (13.23 ticks)
Found incumbent of value 0.971056 after 0.03 sec. (24.57 ticks)
Tried aggregator 1 time.
Reduced MIP has 2307 rows, 2461 columns, and 9063 nonzeros.
Reduced MIP has 22 binaries, 0 generals, 0 SOSs, and 0 indicators.
Presolve time = 0.00 sec. (2.43 ticks)

        Nodes                                         Cuts/
   Node  Left     Objective  IInf  Best Integer    Best Bound    ItCnt     Gap

      0     0       10.0000                        Benders: 8        0         
      0     0       10.0000                       Benders: 10        1         
Tried aggregator 1 time.
MIP Presolve modified 234 coefficients.
Reduced MIP has 19 rows, 32 columns, and 178 nonzeros.
Reduced MIP has 22 binaries, 0 generals, 0 SOSs, and 0 indicators.
Presolve time = 0.00 sec. (0.05 ticks)
Probing time = 0.00 sec. (0.01 ticks)
Tried aggregator 1 time.
Reduced MIP has 19 rows, 32 columns, and 178 nonzeros.
Reduced MIP has 22 binaries, 0 generals, 0 SOSs, and 0 indicators.
Presolve time = 0.00 sec. (0.05 ticks)
Probing time = 0.00 sec. (0.01 ticks)
MIP emphasis: balance optimality and feasibility.
MIP search method: dynamic search.
Parallel mode: opportunistic, using up to 8 threads.
Root relaxation solution time = 0.00 sec. (0.04 ticks)
*     0+    0                            0.9711       10.0000           929.81%
      0     0        9.9649     6        0.9711       10.0000       19  929.81%
*     0+    0                            2.5480        9.9649           291.08%
      0     0        9.8709     8        2.5480      Fract: 3       23  287.39%
      0     0        9.8357     8        2.5480      Fract: 4       31  286.02%

Repeating presolve.
Tried aggregator 1 time.
Reduced MIP has 19 rows, 32 columns, and 178 nonzeros.
Reduced MIP has 22 binaries, 0 generals, 0 SOSs, and 0 indicators.
Presolve time = 0.00 sec. (0.05 ticks)
Probing time = 0.00 sec. (0.01 ticks)
Tried aggregator 1 time.
Reduced MIP has 19 rows, 32 columns, and 178 nonzeros.
Reduced MIP has 22 binaries, 0 generals, 0 SOSs, and 0 indicators.
Presolve time = 0.00 sec. (0.05 ticks)
Represolve time = 0.00 sec. (0.66 ticks)
Probing time = 0.00 sec. (0.01 ticks)
MIP emphasis: balance optimality and feasibility.
MIP search method: dynamic search.
Parallel mode: opportunistic, using up to 8 threads.
Root relaxation solution time = 0.00 sec. (0.61 ticks)
*     0+    0                            2.5480        9.8357           286.02%
      0     0        9.8279     9        2.5480        9.8279       77  285.71%
      0     2        9.8279    11        2.5480     Cuts: 116       77  285.71%
Elapsed time = 0.54 sec. (457.52 ticks, tree = 0.01 MB, solutions = 1)
*   112    35      integral     0        3.4551        9.5680      405  176.93%
*   116+   35                            3.4551        9.5680           176.93%
*   121    47      integral     0        3.9535        9.5680      518  142.01%
    200    64        7.9594     4        4.1027        9.4784      885  131.03%
    641    69        cutoff              4.1027        4.8059     2978   17.14%

Benders cuts applied:  1519
Mixed integer rounding cuts applied:  14
Gomory fractional cuts applied:  10

Root node processing (before b&c):
  Real time             =    0.48 sec. (457.12 ticks)
Parallel b&c, 8 threads:
  Real time             =    0.75 sec. (516.64 ticks)
  Sync time (average)   =    0.04 sec.
  Wait time (average)   =    0.00 sec.
                          ------------
Total (root+branch&cut) =    1.24 sec. (973.76 ticks)

Solution pool: 1 solution saved.

MIP - Integer optimal solution:  Objective =  4.1026974485e+00
Solution time =    1.24 sec.  Iterations = 3761  Nodes = 667 (1)
Deterministic time = 974.35 ticks  (787.06 ticks/sec)


Solution pool written to file 'wgcp_a6_b0_n2.sol'.
Current MIP best bound =  4.1026974485e+00 (gap = -0, 0.00%)
